(set-logic QF_S)
(declare-fun var0 () String)
(declare-fun var1 () String)
(declare-fun var2 () String)
(declare-fun var3 () String)
(declare-fun var4 () Int)
(declare-fun var5 () Int)
(declare-fun var6 () Int)
(assert (str.contains (str.replace var0 var1 var2) (str.replace var3 var1 var1)))
(assert (<= var4 var5))
(assert (< (str.len var0) (str.indexof var2 var1 var6)))
(assert (>= (str.to.int var2) (str.to.int var3)))
(check-sat)